Cars = 1..200;
Options = 1..5;
Classes = 1..23;
sequenceMinCapacity = [0, 0, 0, 0, 0];
sequenceMaxCapacity = [1, 2, 1, 2, 1];
sequenceSize = [2, 3, 3, 5, 5];
numOrdered = [21, 1, 15, 7, 1, 4, 4, 3, 10, 4, 8, 3, 49, 1, 2, 4, 3, 30, 18, 1, 9, 1, 1];
classHasOption = [|false, false, false, false,  true
                  |false,  true,  true, false,  true
                  |false,  true, false,  true, false
                  | true, false,  true, false, false
                  |false, false, false,  true,  true
                  |false,  true,  true, false, false
                  |false, false,  true, false,  true
                  | true,  true,  true, false, false
                  | true,  true, false, false, false
                  |false,  true,  true,  true, false
                  |false, false,  true,  true, false
                  | true,  true, false, false,  true
                  |false,  true, false, false, false
                  | true, false, false,  true,  true
                  | true, false, false, false,  true
                  | true, false, false,  true, false
                  |false,  true, false, false,  true
                  | true, false, false, false, false
                  |false, false, false,  true, false
                  | true, false,  true,  true, false
                  |false, false,  true, false, false
                  | true,  true,  true, false,  true
                  | true,  true, false,  true, false|];
optionOrdering = [5, 1, 3, 4, 2];
